1222473
25,11,77,50,24,21,51,10,97,27,45,81,15,60,66,57,86,75,37,49,87,14,96,41,34,35,98,62,67,12,59,61,30,48,92,68,55,9,29,95,76,19,20,47,36,31,73,69,0,32,8,56,46,94,72,83,91,13,82,1,26,4,63,2,84,88,7,52,90,54,43,17,40,74,5,71,79,44,6,65,85,80,3,38,42,23,22,64,53,70,33,89,58,18,16,39,78,28,93
